Maximize
	+ 2 x2 + 4 x3 - 4 x4 + 4 x6 
Maximize
	- 3 x1 + 5 x2 - 3 x3 + 5 x5 + 5 x6 
Maximize
	+ 4 x1 + 5 x2 + 4 x4 - 2 x6 
Subject To
	+ 2 x1 + 6 x2 + 3 x3 + 5 x4 <= 8
	+ 1 x1 + 3 x2 + 3 x3 + 2 x4 <= 4
	- 3 x1 + 5 x2 - 1 x4 - 1 x5 - 2 x6 <= 8
	- 2 x1 - 4 x2 + 3 x4 <= 8
	+ 3 x2 + 2 x3 + 2 x4 + 6 x5 - 2 x6 <= 3
Bounds
	0 <= x1 <= 4
	0 <= x2 <= 4
	0 <= x3 <= 4
	0 <= x4 <= 4
	0 <= x5 <= 4
	0 <= x6 <= 4
Integers
	x1 x2 x3 x4 x5 x6 
End